
Gurobi 11.0.3 (linux64) logging started Thu Nov 21 13:32:59 2024

Set parameter LogFile to value "/home/yihong/Coding/OR_SUC/SUC_results_bigM100000_thread4/case24_ieee_rts_theta0.1_epsilon0.05_gurobi_seed60000_num_gen100_N_WDR100_load_scaling_factor1_proposed_T16quadra_cost.txt"
Set parameter TimeLimit to value 3600
Gurobi Optimizer version 11.0.3 build v11.0.3rc0 (linux64 - "Ubuntu 20.04.6 LTS")

CPU model: AMD EPYC 7532 32-Core Processor, instruction set [SSE2|AVX|AVX2]
Thread count: 64 physical cores, 128 logical processors, using up to 4 threads

Optimize a model with 38206 rows, 19941 columns and 876666 nonzeros
Model fingerprint: 0x0ccc98e6
Model has 1600 quadratic constraints
Variable types: 18341 continuous, 1600 integer (1600 binary)
Coefficient statistics:
  Matrix range     [3e-04, 3e+03]
  QMatrix range    [2e-03, 8e-03]
  QLMatrix range   [1e+00, 6e+01]
  Objective range  [1e+00, 1e+00]
  Bounds range     [1e+00, 1e+00]
  RHS range        [1e+00, 9e+03]
Presolve removed 31262 rows and 8502 columns
Presolve time: 0.26s
Presolved: 6944 rows, 11439 columns, 38990 nonzeros
Presolved model has 1600 quadratic constraint(s)
Variable types: 9839 continuous, 1600 integer (1600 binary)

Root relaxation: objective 2.185124e+04, 5459 iterations, 0.13 seconds (0.18 work units)

    Nodes    |    Current Node    |     Objective Bounds      |     Work
 Expl Unexpl |  Obj  Depth IntInf | Incumbent    BestBd   Gap | It/Node Time

H    0     0                    465847.93487 21851.2357  95.3%     -    0s
*    0     0               0    465847.93487 21851.2357  95.3%     -    0s
     0     0 240480.970    0  447 465847.935 240480.970  48.4%     -    0s
     0     0 423596.718    0  141 465847.935 423596.718  9.07%     -    1s
     0     0 423687.541    0    2 465847.935 423687.541  9.05%     -    1s
     0     0 423687.541    0   18 465847.935 423687.541  9.05%     -    1s
     0     0 423687.541    0   18 465847.935 423687.541  9.05%     -    1s
     0     0 423687.541    0   20 465847.935 423687.541  9.05%     -    1s
     0     0 423687.541    0   20 465847.935 423687.541  9.05%     -    1s
     0     2 423687.541    0   20 465847.935 423687.541  9.05%     -    2s
H   89    94                    424333.46691 423696.753  0.15%  66.1    4s
*   89    94              25    424333.46691 423696.753  0.15%  66.1    4s
H  120   106                    424122.48409 423697.087  0.10%  65.0    5s
*  120   106              28    424122.48409 423697.087  0.10%  65.8    5s

Cutting planes:
  Gomory: 57
  Implied bound: 200
  MIR: 19
  Flow cover: 142
  RLT: 184
  Relax-and-lift: 117

Explored 271 nodes (28810 simplex iterations) in 6.43 seconds (7.42 work units)
Thread count was 4 (of 128 available processors)

Solution count 3: 424122 424333 465848 

Optimal solution found (tolerance 1.00e-03)
Warning: max constraint violation (9.8514e-09) exceeds tolerance
Best objective 4.241224840913e+05, best bound 4.237067949597e+05, gap 0.0980%
